5 5
3 65 1 77 2 1 0 5 4 80
2 15 0 28 3 95 1 23 4 17
3 98 1 13 4 14 2 11 0 28
3 42 2 96 1 99 0 61 4 64
3 31 1 81 4 73 2 10 0 8
-1
0 2 3 4 5
0 1 2 5
0 2 5
0 2 5
0 2 5
-2
221 209 214 260
21 53 277
132 256
168 496
151 275

439 7
6 3 24 18 14
21 1 17 8 11
5 16 2 23 13
20 15 0 7 10
22 4 9 12 19
